JulietBench/Juliet_Based_Patch_Bench/FFmpeg/CWE-189-Numeric-Errors/CVE_2011_4352_8b94df0f2047e9728cb872adc9e64557b7a5152f/Resultvp3_dequant_Snippet_patch1EQ.smt2
; benchmark generated from python API
(set-info :status unknown)
(declare-fun rsi () (_ BitVec 64))
(declare-fun R () (_ BitVec 32))
(declare-fun rdi () (_ BitVec 64))
(assert
 (let ((?x8 ((_ extract 31 0) rsi)))
 (let ((?x18 ((_ extract 31 31) rsi)))
 (let ((?x21 (concat (concat (concat (concat (concat ?x18 ?x18) ?x18) ?x18) ?x18) ?x18)))
 (let ((?x26 (concat (concat (concat (concat (concat ?x21 ?x18) ?x18) ?x18) ?x18) ?x18)))
 (let ((?x34 (concat (concat (concat (concat (concat ?x26 ?x18) ?x18) ?x18) ?x18) ?x18)))
 (let ((?x42 (concat (concat (concat (concat (concat ?x34 ?x18) ?x18) ?x18) ?x18) ?x18)))
 (let ((?x47 (concat (concat (concat (concat (concat ?x42 ?x18) ?x18) ?x18) ?x18) ?x18)))
 (let ((?x52 (concat (concat (concat (concat (concat ?x47 ?x18) ?x18) ?x18) ?x18) ?x18)))
 (let ((?x54 (concat (concat ?x52 ?x18) ?x8)))
 (let ((?x55 (bvashr ?x54 (_ bv2 64))))
 (let ((?x56 ((_ extract 6 0) ?x55)))
 (let ((?x57 (concat (_ bv0 25) ?x56)))
 (let (($x151 (= R ?x57)))
 (let ((?x6 ((_ extract 31 0) rdi)))
 (let ((?x59 (bvadd ?x6 ?x57)))
 (let (($x92 (bvsge (_ bv63 32) ?x59)))
 (let (($x152 (and $x92 $x151)))
 (let (($x139 (= R ?x59)))
 (let (($x125 (bvslt (_ bv63 32) ?x59)))
 (let (($x147 (and $x125 $x139)))
 (let (($x153 (or $x147 $x152)))
 (let ((?x76 (bvadd (bvadd (_ bv1 32) ?x6) ?x57)))
 (let (($x149 (= R ?x76)))
 (and $x149 $x153)))))))))))))))))))))))))
(check-sat)
